data;

set TIMESLOTS := 1 2 3;
set TIMESLOTS1 := 1 2;
set K := 1 2 3 4 5;
set ORIGIN := 1 2 3;
set DESTINATION := 1 2 3;
set PLANES := 1 2 3;
param SEATS := 15;
param TIME := 24;

param AIRTIME :
  1 2 3  :=
1 0 2 5
2 2 0 5
3 5 5 0;

param PASSENGERS : 
  1 2 3 :=
1 0 12 15
2 13 0 15
3 14 16 0;

end;